25 40
1 2 3
1 6 4
2 3 5
2 7 2
3 4 4
3 8 1
4 5 5
4 9 4
5 10 2
6 7 4
6 11 1
7 8 1
7 12 5
8 9 3
8 13 5
9 10 5
9 14 3
10 15 1
11 12 2
11 16 1
12 13 5
12 17 5
13 14 2
13 18 1
14 15 4
14 19 1
15 20 4
16 17 1
16 21 2
17 18 5
17 22 3
18 19 2
18 23 4
19 20 2
19 24 3
20 25 5
21 22 2
22 23 4
23 24 4
24 25 4
